1639161
24 61 5437
61 3 12947
3 21 17216
21 38 42598
38 67 15200
67 64 14572
64 11 35955
11 66 13370
66 26 57991
26 55 61621
55 46 30985
46 34 36286
34 7 42208
7 43 52950
43 22 102153
22 14 67712
14 52 39276
52 33 101509
33 57 88918
57 18 27906
18 10 28652
10 44 75759
44 31 78229
31 28 65445
28 50 10810
50 53 48925
53 37 6554
37 62 30446
62 39 8740
39 51 11004
51 35 8926
35 68 19070
68 8 34471
8 36 11459
36 59 8563
59 16 10880
16 63 14689
63 48 23516
48 2 7938
2 15 24137
15 58 6904
58 9 1777
9 17 5356
17 27 1445
27 45 8214
45 65 16726
65 20 13332
20 4 4440
4 47 12782
47 13 9114
13 54 13536
54 1 18207
1 12 10465
12 32 4813
32 56 1427
56 40 3489
40 5 3130
5 19 15574
19 49 8895
49 23 4353
23 60 7498
60 6 15832
6 41 10602
41 30 5056
30 25 1249
25 29 9940
29 42 15312
42 24 14670
